c turning on binary mode checking
c parsing input formula with 259840 variables and 1039924 clauses
c finished parsing, read 4048291 bytes from proof file
c detected empty clause; start verification via backward checking
c 3176 of 1039924 clauses in core                            
c 1210 of 158970 lemmas in core using 24056 resolution steps
c 0 RAT lemmas in core; 110 redundant literals in core lemmas
s VERIFIED
c verification time: 1.644 seconds
